//Dat File

outFile="MPVSBPP_SET1_IT200_ITV2_NT1_TS3_WT1_VT1_REP9";
m=200;
o=42;
p=3;
numVTypes=1;

demand = [3, 11, 7, 10, 5, 7, 3, 4, 4, 4, 4, 2, 2, 1, 10, 11, 1, 1, 6, 2, 3, 1, 4, 11, 9, 11, 2, 9, 3, 11, 5, 7, 3, 4, 11, 11, 8, 8, 11, 4, 7, 8, 10, 7, 8, 1, 10, 1, 2, 2, 5, 9, 5, 2, 5, 9, 9, 3, 7, 1, 5, 7, 10, 10, 3, 2, 8, 11, 5, 10, 1, 10, 10, 10, 1, 7, 9, 3, 3, 4, 1, 7, 7, 6, 5, 3, 9, 1, 8, 1, 8, 7, 4, 3, 8, 4, 2, 4, 1, 11, 13, 16, 16, 14, 17, 15, 18, 19, 14, 15, 12, 14, 18, 13, 16, 14, 15, 19, 15, 18, 18, 14, 19, 17, 19, 17, 13, 18, 15, 13, 17, 18, 14, 14, 16, 17, 19, 18, 13, 12, 13, 19, 13, 13, 14, 17, 18, 17, 14, 14, 16, 14, 18, 17, 16, 18, 18, 14, 19, 16, 14, 15, 15, 12, 14, 12, 16, 13, 13, 16, 19, 17, 19, 18, 16, 13, 17, 14, 13, 16, 15, 18, 13, 12, 19, 14, 17, 13, 14, 17, 12, 17, 14, 15, 13, 16, 18, 13, 18, 17];
Depot_Cap = [30000, 30000, 30000];
Tarif = [10, 3, 7];
VeicVolume = [100];
VeicCost = [100];
VeicType = [1, 1, 1, 1, 1, 1, 1, 1, 1, 1, 1, 1, 1, 1, 1, 1, 1, 1, 1, 1, 1, 1, 1, 1, 1, 1, 1, 1, 1, 1, 1, 1, 1, 1, 1, 1, 1, 1, 1, 1, 1, 1];
Elect_vehicle = [[70, 100, 30], [70, 100, 30], [70, 100, 30], [70, 100, 30], [70, 100, 30], [70, 100, 30], [70, 100, 30], [70, 100, 30], [70, 100, 30], [70, 100, 30], [70, 100, 30], [70, 100, 30], [70, 100, 30], [70, 100, 30], [70, 100, 30], [70, 100, 30], [70, 100, 30], [70, 100, 30], [70, 100, 30], [70, 100, 30], [70, 100, 30], [70, 100, 30], [70, 100, 30], [70, 100, 30], [70, 100, 30], [70, 100, 30], [70, 100, 30], [70, 100, 30], [70, 100, 30], [70, 100, 30], [70, 100, 30], [70, 100, 30], [70, 100, 30], [70, 100, 30], [70, 100, 30], [70, 100, 30], [70, 100, 30], [70, 100, 30], [70, 100, 30], [70, 100, 30], [70, 100, 30], [70, 100, 30]];